num_vertices = 20;
num_edges = 19;
edges = {
    <1, 2>,
    <1, 6>,
    <2, 3>,
    <2, 9>,
    <3, 4>,
    <3, 12>,
    <4, 5>,
    <4, 15>,
    <5, 18>,
    <6, 7>,
    <7, 8>,
    <9, 10>,
    <10, 11>,
    <12, 13>,
    <13, 14>,
    <15, 16>,
    <16, 17>,
    <18, 19>,
    <19, 20>
};
